c Read 544 clauses.  204 variables
c Breaking ties randomly with seed 1
c Placed 544 terms into 94 buckets.
c Bucket 4 Reduced to term with 7 nodes
c Bucket 8 Reduced to term with 7 nodes
c Bucket 12 Reduced to term with 7 nodes
c Bucket 16 Reduced to term with 7 nodes
c Bucket 20 Reduced to term with 7 nodes
c Bucket 24 Reduced to term with 7 nodes
c Bucket 28 Reduced to term with 9 nodes
c Bucket 32 Reduced to term with 7 nodes
c Bucket 36 Reduced to term with 13 nodes
c Bucket 40 Reduced to term with 9 nodes
c Bucket 44 Reduced to term with 7 nodes
c Bucket 48 Reduced to term with 7 nodes
c Bucket 52 Reduced to term with 13 nodes
c Bucket 56 Reduced to term with 9 nodes
c Bucket 60 Reduced to term with 11 nodes
c Bucket 64 Reduced to term with 9 nodes
c Bucket 68 Reduced to term with 7 nodes
c Bucket 72 Reduced to term with 29 nodes
c Bucket 76 Reduced to term with 11 nodes
c Bucket 80 Reduced to term with 7 nodes
c Bucket 84 Reduced to term with 31 nodes
c Bucket 88 Reduced to term with 41 nodes
c Bucket 92 Reduced to term with 9 nodes
c Bucket 96 Reduced to term with 11 nodes
c Bucket 100 Reduced to term with 77 nodes
c Bucket 104 Reduced to term with 19 nodes
c Bucket 108 Reduced to term with 83 nodes
c Bucket 112 Reduced to term with 79 nodes
c Bucket 120 Reduced to term with 71 nodes
c Bucket 124 Reduced to term with 77 nodes
c Bucket 128 Reduced to term with 57 nodes
c Bucket 136 Reduced to term with 33 nodes
c Bucket 144 Reduced to term with 19 nodes
s UNSATISFIABLE

c Cache statistics
c ----------------
c Unique Access:  12511
c Unique Chain:   280
c Unique Hit:     2467
c Unique Miss:    9802
c => Hit rate =   0.20
c Operator Hits:  11562
c Operator Miss:  15550
c => Hit rate =   0.43
c Swap count =    0

c BDD statistics
c ----------------
c Total BDD nodes produced: 9802
c Input variables: 204
c Input clauses: 544
c Total clauses: 59712
c Unused+non-BDD clause IDs: 2522 (4.2%)
c Maximum live clauses: 45677
c Deleted clauses: 59168
c Final live clauses: 544
c Total variables: 10004
c Elapsed seconds: 0.045
-rw-r--r--  1 bryant  staff  2374913 Mar 10 23:07 chew-70-123456.lrat
c parsed a formula with 204 variables and 544 clauses
c VERIFIED
c allocated 1024 211734 2040
c Added clauses = 59712.  Deleted clauses = 14035.  Max live clauses = 45677
c verification time = 0.04 secs
